NAME : covtype.pruned_local_8.tour
TYPE : TOUR
DIMENSION : 54
TOUR_SECTION
1
3
6
11
43
44
2
4
5
7
8
9
10
13
45
46
47
48
49
50
51
52
53
54
12
39
40
41
42
14
20
21
22
23
24
25
26
27
28
29
30
31
32
33
34
35
36
37
38
15
16
17
18
19
-1
EOF
